
Gurobi 13.0.1 (linux64) logging started Sun Mar 22 05:18:53 2026

Set parameter LogFile to value "logs/100B_3F_robust_gamma_0d5_theta_0d05199999999999999_2026-03-22_05h18m26s.log"
Gurobi Optimizer version 13.0.1 build v13.0.1rc0 (linux64 - "Linux Mint 22")

CPU model: 12th Gen Intel(R) Core(TM) i7-12700, instruction set [SSE2|AVX|AVX2]
Thread count: 20 physical cores, 20 logical processors, using up to 20 threads

Non-default parameters:
TimeLimit  3600
SoftMemLimit  12

Optimize a model with 60721 rows, 1531121 columns and 4635098 nonzeros (Max)
Model fingerprint: 0xe2af3859
Model has 1485111 linear objective coefficients
Variable types: 16121 continuous, 1515000 integer (1515000 binary)
Coefficient statistics:
  Matrix range     [3e-05, 1e+05]
  Objective range  [1e+00, 3e+03]
  Bounds range     [1e+00, 1e+05]
  RHS range        [1e+00, 1e+05]

Presolve removed 36714 rows and 1241081 columns
Presolve time: 0.66s
Presolved: 24007 rows, 290040 columns, 921754 nonzeros
Variable types: 6446 continuous, 283594 integer (283594 binary)
Found heuristic solution: objective -4.95506e+08
Performing another presolve...
Presolve added 0 rows and 10 columns
Presolve removed 18 rows and 0 columns
Presolve time: 1.20s
Deterministic concurrent LP optimizer: primal simplex, dual simplex, and barrier
Showing barrier log only...

Root barrier log...

Ordering time: 0.59s

Barrier statistics:
 AA' NZ     : 4.530e+05
 Factor NZ  : 4.046e+06 (roughly 160 MB of memory)
 Factor Ops : 1.382e+09 (less than 1 second per iteration)
 Threads    : 18

                  Objective                Residual
Iter       Primal          Dual         Primal    Dual     Compl     Time
   0  -2.66088906e+12  1.35047632e+09  1.05e+08 1.02e+03  2.69e+07     4s
   1  -2.94114625e+11  5.13123586e+09  1.16e+07 2.80e-11  3.07e+06     4s
   2  -9.55600070e+09  3.06702591e+09  3.77e+05 6.43e-11  1.04e+05     4s
   3  -8.18905071e+08  1.83448256e+09  3.27e+04 5.82e-11  1.18e+04     4s
   4   2.41591507e+08  9.95704499e+08  1.76e+03 3.09e-11  1.59e+03     4s
   5   2.94443372e+08  4.63646809e+08  2.85e+02 4.02e-11  3.24e+02     4s
   6   3.00551657e+08  3.64944601e+08  1.43e+02 3.79e-11  1.27e+02     4s
   7   3.04378604e+08  3.26923753e+08  5.81e+01 5.87e-11  4.54e+01     4s
   8   3.05302269e+08  3.23212449e+08  3.68e+01 1.39e-10  3.47e+01     4s
   9   3.06383176e+08  3.19421564e+08  1.53e+01 4.11e-10  2.38e+01     4s
  10   3.06565044e+08  3.13447308e+08  1.14e+01 3.43e-10  1.27e+01     4s
  11   3.06971439e+08  3.10043693e+08  3.22e+00 3.19e-10  5.43e+00     4s
  12   3.07078670e+08  3.08540352e+08  1.38e+00 3.22e-10  2.53e+00     4s
  13   3.07175391e+08  3.08034733e+08  1.57e-01 2.71e-10  1.45e+00     4s
  14   3.07209858e+08  3.07582952e+08  5.76e-02 2.73e-10  6.30e-01     4s
  15   3.07238602e+08  3.07420770e+08  1.41e-02 2.57e-10  3.08e-01     5s
  16   3.07246887e+08  3.07355554e+08  7.81e-03 3.18e-10  1.84e-01     5s
  17   3.07254867e+08  3.07313407e+08  2.82e-03 3.32e-10  9.88e-02     5s
  18   3.07257449e+08  3.07294488e+08  1.62e-03 3.34e-10  6.25e-02     5s
  19   3.07259458e+08  3.07280441e+08  8.12e-04 3.37e-10  3.54e-02     5s
  20   3.07261136e+08  3.07272162e+08  2.58e-04 3.02e-10  1.86e-02     5s
  21   3.07261656e+08  3.07267995e+08  1.23e-04 2.99e-10  1.07e-02     5s
  22   3.07261875e+08  3.07266231e+08  7.49e-05 3.14e-10  7.36e-03     5s
  23   3.07262030e+08  3.07264899e+08  4.62e-05 3.45e-10  4.84e-03     5s
  24   3.07262127e+08  3.07264355e+08  3.08e-05 3.63e-10  3.76e-03     5s
  25   3.07262158e+08  3.07263786e+08  2.61e-05 3.48e-10  2.75e-03     5s
  26   3.07262188e+08  3.07263680e+08  2.25e-05 2.97e-10  2.52e-03     5s
  27   3.07262262e+08  3.07263315e+08  1.31e-05 4.21e-10  1.78e-03     5s
  28   3.07262306e+08  3.07263106e+08  8.26e-06 4.20e-10  1.35e-03     5s
  29   3.07262335e+08  3.07262875e+08  4.61e-06 4.48e-10  9.12e-04     6s
  30   3.07262347e+08  3.07262735e+08  3.36e-06 4.24e-10  6.56e-04     6s
  31   3.07262363e+08  3.07262611e+08  1.56e-06 3.27e-10  4.18e-04     6s
  32   3.07262368e+08  3.07262529e+08  1.16e-06 3.65e-10  2.72e-04     6s
  33   3.07262372e+08  3.07262463e+08  8.74e-07 3.17e-10  1.53e-04     6s
  34   3.07262375e+08  3.07262460e+08  6.59e-07 4.76e-10  1.42e-04     6s
  35   3.07262376e+08  3.07262432e+08  5.97e-07 4.06e-10  9.44e-05     6s
  36   3.07262380e+08  3.07262408e+08  3.29e-07 2.92e-10  4.73e-05     6s
  37   3.07262384e+08  3.07262395e+08  8.46e-08 2.47e-10  1.93e-05     6s
  38   3.07262385e+08  3.07262394e+08  2.77e-08 3.92e-10  1.54e-05     6s
  39   3.07262385e+08  3.07262387e+08  1.79e-08 1.76e-10  3.29e-06     6s
  40   3.07262385e+08  3.07262386e+08  1.89e-09 2.07e-10  2.92e-07     6s
  41   3.07262386e+08  3.07262386e+08  3.36e-09 2.14e-10  2.18e-10     6s

Barrier solved model in 41 iterations and 6.38 seconds (8.94 work units)
Optimal objective 3.07262386e+08


Root crossover log...

    9693 DPushes remaining with DInf 0.0000000e+00                 6s
       0 DPushes remaining with DInf 0.0000000e+00                 7s

    3863 PPushes remaining with PInf 3.2054561e-04                 7s
       0 PPushes remaining with PInf 0.0000000e+00                 7s

  Push phase complete: Pinf 0.0000000e+00, Dinf 3.2684138e+04      7s


Root simplex log...

Iteration    Objective       Primal Inf.    Dual Inf.      Time
   11911    3.0726239e+08   0.000000e+00   3.268414e+04      7s
   13260    3.0726239e+08   0.000000e+00   0.000000e+00      7s
Crossover time: 0.67 seconds (0.71 work units)
Concurrent spin time: 0.92s (can be avoided by choosing Method=3)

Solved with barrier

Root relaxation: objective 3.072624e+08, 13260 iterations, 5.45 seconds (5.34 work units)
Total elapsed time = 7.99s (DegenMoves)

    Nodes    |    Current Node    |     Objective Bounds      |     Work
 Expl Unexpl |  Obj  Depth IntInf | Incumbent    BestBd   Gap | It/Node Time

     0     0 3.0726e+08    0 7335 -4.955e+08 3.0726e+08   162%     -    8s
H    0     0                    -1.55357e+08 3.0726e+08   298%     -    9s
H    0     0                    -1.44992e+08 3.0726e+08   312%     -    9s
H    0     0                    -9.36915e+07 3.0726e+08   428%     -    9s
H    0     0                    -7.84305e+07 3.0726e+08   492%     -    9s
H    0     0                    -7.84197e+07 3.0726e+08   492%     -    9s
H    0     0                    -7.84162e+07 3.0726e+08   492%     -   11s
H    0     0                    -7.84121e+07 3.0726e+08   492%     -   11s
H    0     0                    -7.84116e+07 3.0726e+08   492%     -   12s
H    0     0                    1.494453e+08 3.0726e+08   106%     -   13s
H    0     0                    2.321613e+08 3.0726e+08  32.3%     -   14s
H    0     0                    2.321648e+08 3.0726e+08  32.3%     -   15s
     0     0 3.0726e+08    0 7422 2.3216e+08 3.0726e+08  32.3%     -   38s
H    0     0                    2.330443e+08 3.0726e+08  31.8%     -   44s
     0     0 3.0726e+08    0 7358 2.3304e+08 3.0726e+08  31.8%     -   72s
     0     0 3.0726e+08    0 7574 2.3304e+08 3.0726e+08  31.8%     -  129s
H    0     0                    2.445771e+08 3.0726e+08  25.6%     -  133s
H    0     0                    2.554346e+08 3.0726e+08  20.3%     -  141s
H    0     0                    2.595778e+08 3.0726e+08  18.4%     -  183s
H    0     0                    2.606698e+08 3.0726e+08  17.9%     -  226s
     0     0 3.0726e+08    0 7546 2.6067e+08 3.0726e+08  17.9%     -  252s
     0     0 3.0726e+08    0 7494 2.6067e+08 3.0726e+08  17.9%     -  261s
     0     0 3.0726e+08    0 7582 2.6067e+08 3.0726e+08  17.9%     -  265s
     0     0 3.0726e+08    0 7725 2.6067e+08 3.0726e+08  17.9%     -  276s
     0     0 3.0726e+08    0 7706 2.6067e+08 3.0726e+08  17.9%     -  279s
     0     0 3.0726e+08    0 7935 2.6067e+08 3.0726e+08  17.9%     -  295s
     0     0 3.0726e+08    0 7935 2.6067e+08 3.0726e+08  17.9%     -  297s
     0     0 3.0726e+08    0 7919 2.6067e+08 3.0726e+08  17.9%     -  298s
     0     2 3.0726e+08    0 7915 2.6067e+08 3.0726e+08  17.9%     -  367s
     1     4 3.0726e+08    1 7893 2.6067e+08 3.0726e+08  17.9%   836  426s
H    3     8                    2.609009e+08 3.0726e+08  17.8%  6138  491s
     7    16 3.0726e+08    3 7976 2.6090e+08 3.0726e+08  17.8%  6386  557s
H   14    16                    2.609010e+08 3.0726e+08  17.8%  5365  557s
    15    31 3.0726e+08    4 7973 2.6090e+08 3.0726e+08  17.8%  5390  838s
    30    47 3.0726e+08    5 6702 2.6090e+08 3.0726e+08  17.8% 13346 1059s
H   46    70                    2.611933e+08 3.0726e+08  17.6% 24653 1463s
H   48    70                    2.611981e+08 3.0726e+08  17.6% 23717 1463s
H   55    70                    2.612003e+08 3.0726e+08  17.6% 21165 1463s
H   59    70                    2.612025e+08 3.0726e+08  17.6% 19791 1463s
H   68    70                    2.614030e+08 3.0726e+08  17.5% 17520 1463s
H   69    99                    2.625346e+08 3.0726e+08  17.0% 17279 1827s
H   71    99                    2.629956e+08 3.0726e+08  16.8% 16831 1827s
H   90    99                    2.630898e+08 3.0726e+08  16.8% 13881 1827s
    98   259 3.0724e+08    8 6646 2.6309e+08 3.0726e+08  16.8% 13059 2590s
   258   455 3.0726e+08    9 6518 2.6309e+08 3.0726e+08  16.8%  6915 3600s

Cutting planes:
  MIR: 19
  Flow cover: 107
  RLT: 2668
  Relax-and-lift: 92

Explored 454 nodes (2464450 simplex iterations) in 3600.49 seconds (2741.75 work units)
Thread count was 20 (of 20 available processors)

Solution count 10: 2.6309e+08 2.62996e+08 2.62535e+08 ... 2.60901e+08

Time limit reached
Warning: max constraint violation (8.4662e-05) exceeds tolerance
Best objective 2.630897938689e+08, best bound 3.072599898541e+08, gap 16.7890%
